costs= [1000,100,10,1];
num_categories= 8;
categories= [{16,30,44,58,72,86,100,114,128,142,156,170,240,254,268,282,296,310,324,338,352,366,380,394,408,414,428,442,456,470,478,484,498,512,526,540,554,652,666,680,694,708,722,736,750,764,778,792},{16,30,44,58,72,86,100,114,128,142,156,254,268,282,296,310,324,338,352,366,380,394,414,428,442,456,470,484,498,512,526,540,554,652,666,680,694,708,722,736,750,764,778,792},{30,58,86,114,142,268,296,324,352,380,414,442,470,498,526,554,652,680,708,736,764,792},{30,44,58,72,86,100,114,128,142,268,282,296,310,324,338,352,366,380,428,442,456,470,484,498,512,526,540,666,680,694,708,722,736,750,764,778},{16,30,58,86,114,142,254,268,296,324,352,380,414,442,470,498,526,554,652,680,708,736,764,792},{142,170,240,380,408,478},{30,44,58,72,86,100,114,128,142,156,268,282,296,310,324,338,352,366,380,394,414,428,442,456,470,484,498,512,526,540,554,652,666,680,694,708,722,736,750,764,778,792},{16,30,44,58,72,86,100,114,128,142,156,254,268,282,296,310,324,338,352,366,380,394}];
min_freq= 16;
max_freq= 792;
num_variables= 200;
domains= [2,2,2,2,2,2,2,2,2,2,2,2,2,2,2,2,2,2,2,2,4,4,4,4,4,4,2,2,2,2,2,2,2,2,2,2,2,2,2,2,2,2,2,2,2,2,2,2,2,2,2,2,2,2,2,2,2,2,2,2,2,2,2,2,2,2,2,2,2,2,2,2,2,2,2,2,4,4,4,4,4,4,4,4,2,2,4,4,4,4,4,4,4,4,4,4,4,4,4,4,2,2,2,2,4,4,2,2,2,2,2,2,4,4,4,4,4,4,4,4,4,4,4,4,4,4,4,4,4,4,4,4,4,4,4,4,4,4,4,4,4,4,4,4,4,4,4,4,8,8,2,2,2,2,2,2,2,2,2,2,2,2,2,2,2,2,2,2,4,4,4,4,4,4,4,4,2,2,2,2,2,2,4,4,4,4,4,4,4,4,4,4,4,4,4,4,4,4,4,4];
num_hardconstraints= 100;
hardctrx= [1,3,5,7,9,11,13,15,17,19,21,23,25,27,29,31,33,35,37,39,41,43,45,47,49,51,53,55,57,59,61,63,65,67,69,71,73,75,77,79,81,83,85,87,89,91,93,95,97,99,101,103,105,107,109,111,113,115,117,119,121,123,125,127,129,131,133,135,137,139,141,143,145,147,149,151,153,155,157,159,161,163,165,167,169,171,173,175,177,179,181,183,185,187,189,191,193,195,197,199];
hardctry= [2,4,6,8,10,12,14,16,18,20,22,24,26,28,30,32,34,36,38,40,42,44,46,48,50,52,54,56,58,60,62,64,66,68,70,72,74,76,78,80,82,84,86,88,90,92,94,96,98,100,102,104,106,108,110,112,114,116,118,120,122,124,126,128,130,132,134,136,138,140,142,144,146,148,150,152,154,156,158,160,162,164,166,168,170,172,174,176,178,180,182,184,186,188,190,192,194,196,198,200];
hardctrk= [238,238,238,238,238,238,238,238,238,238,238,238,238,238,238,238,238,238,238,238,238,238,238,238,238,238,238,238,238,238,238,238,238,238,238,238,238,238,238,238,238,238,238,238,238,238,238,238,238,238,238,238,238,238,238,238,238,238,238,238,238,238,238,238,238,238,238,238,238,238,238,238,238,238,238,238,238,238,238,238,238,238,238,238,238,238,238,238,238,238,238,238,238,238,238,238,238,238,238,238];
num_softconstraints= 1222;
softctrx= [1,1,1,1,1,1,1,1,1,1,1,1,1,1,2,2,2,2,2,2,2,2,2,2,2,2,2,2,3,3,3,3,3,3,3,3,3,3,3,3,4,4,4,4,4,4,4,4,4,4,4,4,5,5,7,7,8,8,8,8,8,9,10,11,11,11,11,11,11,11,11,12,12,12,12,12,12,12,12,12,13,13,13,13,13,13,14,14,14,14,14,14,14,15,15,15,15,15,15,15,15,15,15,15,15,15,15,15,15,15,15,15,15,15,15,15,15,15,15,15,16,16,16,16,16,16,16,16,16,16,16,16,16,16,16,16,16,16,16,16,16,16,16,16,16,16,17,17,17,17,17,17,17,17,17,17,17,17,17,17,17,17,17,17,17,17,17,17,17,17,17,18,18,18,18,18,18,18,18,18,18,18,18,18,18,18,18,18,18,18,18,18,18,18,18,19,19,19,19,19,19,19,19,19,20,20,20,20,20,20,20,20,20,20,21,21,21,21,21,21,21,21,21,21,21,21,21,21,22,22,22,22,22,22,22,22,22,22,22,22,22,22,23,23,24,24,25,25,25,25,25,25,25,25,25,25,25,25,26,26,26,26,26,26,26,26,26,26,26,26,28,29,29,29,29,29,29,29,29,29,29,30,30,30,30,30,30,30,30,30,31,31,31,31,31,31,31,31,32,32,32,32,32,32,32,32,32,33,33,33,33,33,33,34,34,34,34,34,34,34,35,35,35,35,35,35,35,35,35,35,35,35,35,35,35,35,35,35,35,35,35,35,35,35,36,36,36,36,36,36,36,36,36,36,36,36,36,36,36,36,36,36,36,36,36,36,36,37,37,37,37,37,37,37,37,37,37,37,37,37,37,37,37,37,37,37,37,37,37,38,38,38,38,38,38,38,38,38,38,38,38,38,38,38,38,38,38,38,38,38,39,39,39,39,39,39,39,39,39,39,39,39,39,39,39,39,39,39,39,40,40,40,40,40,40,40,40,40,40,40,40,40,40,40,40,40,40,40,40,40,41,41,41,41,41,41,41,41,41,41,41,41,41,41,41,41,41,42,42,42,42,42,42,42,42,42,42,42,42,42,42,42,42,42,42,42,43,43,43,43,43,43,43,43,43,43,43,43,43,43,43,43,43,43,43,43,43,43,44,44,44,44,44,44,44,44,44,44,44,44,44,44,44,44,44,44,44,44,44,44,44,45,45,45,45,45,45,45,45,45,45,45,45,46,46,46,46,46,46,46,46,46,46,46,46,47,47,47,47,47,47,47,47,47,47,48,48,48,48,48,48,48,48,48,48,48,49,49,49,49,49,49,49,49,50,50,50,50,50,50,50,50,51,51,52,52,53,53,53,54,54,54,54,55,55,56,56,57,57,57,57,57,57,57,58,58,58,58,58,58,59,59,59,59,59,60,60,60,60,61,61,62,62,63,63,63,63,63,63,63,63,63,63,63,63,64,64,64,64,64,64,64,64,64,64,65,65,65,65,65,65,65,65,65,65,66,66,66,66,66,66,66,66,67,67,67,67,67,67,67,67,68,68,68,68,68,68,68,69,69,69,69,69,69,70,70,70,70,70,71,71,71,71,71,71,72,72,72,72,72,72,72,72,72,73,73,73,73,73,73,73,73,74,74,74,74,74,74,74,74,75,75,75,75,75,75,76,76,76,76,76,76,77,77,77,77,77,77,77,77,77,77,77,77,78,78,78,78,78,78,78,78,78,78,78,78,79,79,79,79,80,80,80,80,81,81,82,82,85,85,86,86,89,89,90,90,91,91,91,91,91,91,91,91,91,91,91,91,92,92,92,92,92,92,92,92,92,92,92,92,93,93,93,93,93,93,93,93,93,93,93,93,93,93,94,94,94,94,94,94,94,94,94,94,94,94,94,94,95,95,95,95,95,95,95,95,96,96,96,96,96,96,96,96,97,97,97,97,97,97,97,97,97,97,98,98,98,98,98,98,98,98,98,98,99,99,99,99,99,99,99,99,99,99,99,99,100,100,100,100,100,100,100,100,100,100,100,101,101,101,101,101,101,102,102,102,102,102,102,103,103,103,103,103,104,104,104,104,105,105,105,105,105,105,105,105,106,106,106,106,106,106,106,106,107,107,107,107,108,108,108,108,108,108,109,109,109,110,110,111,111,111,111,112,112,112,112,113,113,113,113,113,113,113,114,114,114,114,114,114,115,115,115,115,115,115,115,115,115,115,115,115,116,116,116,116,116,116,116,116,116,116,116,116,117,117,117,117,118,118,118,118,119,119,119,119,119,119,119,119,120,120,120,120,120,120,120,121,121,121,121,121,121,122,122,122,122,122,122,123,123,124,124,129,129,129,129,129,129,129,130,130,130,130,131,131,131,131,131,131,131,131,131,132,132,132,132,132,132,132,132,132,132,135,135,135,135,136,136,136,136,137,137,138,138,141,141,141,142,142,142,143,143,144,145,145,145,146,146,146,148,149,149,150,150,155,155,155,155,156,156,156,156,157,157,157,157,158,158,158,158,159,159,159,159,159,159,159,159,160,160,160,160,160,160,160,160,161,161,161,161,161,161,162,162,162,162,162,162,162,163,163,163,163,164,164,164,164,164,165,165,165,166,166,167,169,169,169,169,170,170,170,170,171,172,172,173,173,173,173,174,174,177,179,179,179,179,179,179,179,179,179,179,179,180,180,180,180,180,180,180,180,180,180,183,183,184,184,185,185,186,186,187,187,188,188,189,189,190,190,191,191,192,192,193,193,194,194,195,195,196,196];
softctry= [3,4,63,64,65,66,93,94,121,122,157,158,179,180,3,4,63,64,65,66,93,94,121,122,157,158,179,180,63,64,65,66,93,94,121,122,157,158,179,180,63,64,65,66,93,94,121,122,157,158,179,180,7,8,9,10,9,10,151,186,200,53,54,13,14,131,132,173,174,177,178,13,14,131,132,173,174,177,178,181,131,132,173,174,177,178,131,132,173,174,177,178,181,17,18,39,40,41,42,43,44,45,46,47,48,73,74,75,76,159,160,161,162,163,164,165,166,167,168,184,17,18,39,40,41,42,43,44,45,46,47,48,73,74,75,76,159,160,161,162,163,164,165,166,167,168,39,40,41,42,43,44,45,46,47,48,73,74,75,76,159,160,161,162,163,164,165,166,167,168,184,39,40,41,42,43,44,45,46,47,48,73,74,75,76,159,160,161,162,163,164,165,166,167,168,29,30,67,68,69,70,81,84,175,29,30,67,68,69,70,81,82,84,176,23,24,77,78,97,98,101,102,113,114,135,136,197,198,23,24,77,78,97,98,101,102,113,114,135,136,197,198,79,80,79,80,49,50,57,58,59,60,61,62,77,78,87,88,49,50,57,58,59,60,61,62,77,78,87,88,126,67,68,69,70,82,84,169,170,175,176,67,68,69,70,81,169,170,175,176,33,34,95,96,125,126,149,150,33,34,95,96,108,125,126,149,150,95,96,125,126,149,150,95,96,108,125,126,149,150,37,38,39,40,41,42,43,44,55,56,91,92,105,106,130,141,142,159,160,161,162,163,164,183,37,38,39,40,41,42,43,44,55,56,91,92,105,106,130,141,142,159,160,161,162,163,164,39,40,41,42,43,44,55,56,91,92,105,106,130,141,142,159,160,161,162,163,164,183,39,40,41,42,43,44,55,56,91,92,105,106,130,141,142,159,160,161,162,163,164,41,42,43,44,91,92,105,106,129,159,160,161,162,163,164,165,166,167,168,41,42,43,44,91,92,105,106,129,130,159,160,161,162,163,164,165,166,167,168,183,43,44,91,92,105,106,129,159,160,161,162,163,164,165,166,167,168,43,44,91,92,105,106,129,130,159,160,161,162,163,164,165,166,167,168,183,45,46,47,48,73,74,75,76,91,92,105,106,159,160,161,162,163,164,165,166,167,168,45,46,47,48,73,74,75,76,91,92,105,106,129,159,160,161,162,163,164,165,166,167,168,47,48,73,74,75,76,159,160,165,166,167,168,47,48,73,74,75,76,159,160,165,166,167,168,73,74,75,76,159,160,165,166,167,168,73,74,75,76,106,159,160,165,166,167,168,57,58,59,60,61,62,87,88,57,58,59,60,61,62,87,88,86,128,85,127,55,56,186,55,56,179,180,141,142,141,142,59,60,61,62,87,88,134,59,60,61,62,87,88,61,62,87,88,134,61,62,87,88,87,88,87,88,65,66,93,94,116,121,122,143,157,158,179,180,65,66,93,94,121,122,157,158,179,180,93,94,116,121,122,143,157,158,179,180,93,94,121,122,157,158,179,180,69,70,82,84,169,170,175,176,69,70,83,169,170,175,176,82,84,169,170,175,176,83,169,170,175,176,79,80,113,114,145,146,79,80,100,113,114,123,145,146,147,75,76,159,160,165,166,167,168,75,76,159,160,165,166,167,168,159,160,165,166,167,168,159,160,165,166,167,168,87,88,97,98,101,102,113,114,135,136,197,198,87,88,97,98,101,102,113,114,135,136,197,198,113,114,145,146,113,114,145,146,83,84,83,84,127,128,127,128,119,120,119,120,105,106,129,130,159,160,161,162,163,164,183,184,105,106,129,130,159,160,161,162,163,164,183,184,115,116,119,120,121,122,131,132,157,158,179,180,181,182,115,116,119,120,121,122,131,132,157,158,179,180,181,182,99,100,123,124,125,126,147,148,99,100,123,124,125,126,147,148,101,102,113,114,127,128,135,136,197,198,101,102,113,114,127,128,135,136,197,198,107,108,109,110,123,124,147,148,171,172,179,180,107,108,109,110,123,124,147,148,149,171,172,113,114,135,136,197,198,113,114,135,136,197,198,135,136,139,140,196,135,136,139,140,129,130,159,160,161,162,163,164,129,130,159,160,161,162,163,164,109,110,171,172,109,110,171,172,179,180,171,172,179,171,172,117,118,133,134,117,118,133,134,135,136,145,146,179,197,198,135,136,145,146,197,198,119,120,131,132,143,144,157,158,179,180,181,182,119,120,131,132,143,144,157,158,179,180,181,182,123,124,133,134,123,124,133,134,131,132,157,158,179,180,181,182,131,132,157,158,180,181,182,157,158,171,172,179,180,157,158,171,172,179,180,147,148,147,148,160,161,162,163,164,183,184,162,164,183,184,157,158,173,174,177,178,180,181,182,157,158,173,174,177,178,179,180,181,182,139,140,197,198,139,140,197,198,139,140,139,140,143,144,180,143,144,180,179,180,179,147,148,179,147,148,179,179,153,154,153,154,169,170,173,174,169,170,173,174,179,180,181,182,179,180,181,182,161,162,163,164,165,166,167,168,161,162,163,164,165,166,167,168,163,164,165,166,167,168,163,164,165,166,167,168,183,165,166,167,168,165,166,167,168,183,167,168,184,167,168,184,173,174,175,176,173,174,175,176,179,179,180,177,178,179,180,177,178,179,181,182,186,187,188,189,190,191,195,196,198,181,184,185,186,188,189,194,195,196,198,185,186,185,186,187,188,187,188,189,190,189,190,191,192,191,192,193,194,193,194,195,196,195,196,197,198,197,198];
softctrk= [59,186,10,186,168,56,91,265,26,200,177,7,62,233,186,59,168,11,56,151,265,408,200,343,8,177,121,60,10,186,168,56,91,265,26,200,177,7,62,233,168,11,56,151,265,408,200,343,8,177,121,60,268,425,147,321,321,462,178,294,453,96,225,350,517,242,66,435,293,191,19,200,350,67,112,293,119,20,158,66,125,266,104,74,167,313,267,442,74,217,314,489,266,59,186,65,206,517,341,493,349,236,93,68,242,252,77,252,75,493,349,517,341,517,341,453,302,59,186,427,186,59,114,65,342,200,349,175,93,86,112,68,77,102,77,102,349,175,342,200,342,200,302,135,186,59,65,206,517,341,493,349,236,93,68,242,252,77,252,75,493,349,517,341,517,341,453,302,59,186,427,114,65,342,200,349,175,93,86,112,68,77,102,77,102,349,175,342,200,342,200,302,135,186,59,67,97,185,358,260,116,325,13,152,226,68,358,503,433,260,483,324,171,170,424,284,498,322,442,266,200,28,242,66,196,19,26,196,284,107,322,181,266,125,28,149,66,112,19,158,158,23,256,433,116,256,281,452,322,498,257,433,276,452,480,340,65,218,134,276,181,322,116,256,134,275,340,163,125,65,388,117,293,192,56,99,57,230,88,233,63,293,435,368,192,421,405,230,66,121,443,293,242,68,323,498,481,322,293,126,68,112,57,181,323,340,164,218,362,105,74,57,103,44,218,51,74,216,233,57,59,186,436,293,21,158,12,168,303,480,349,490,224,53,10,153,10,12,168,21,158,21,158,216,186,59,293,117,196,20,186,10,162,303,173,349,48,130,169,11,172,186,10,196,20,196,20,436,293,21,158,12,168,304,480,349,490,224,53,10,153,10,12,168,21,158,21,158,216,293,117,196,20,186,11,162,303,173,349,48,130,169,11,172,186,11,196,20,196,20,471,321,446,302,121,64,246,395,287,446,302,471,321,471,321,405,230,65,114,321,154,302,128,64,233,77,246,127,290,302,128,321,154,321,154,229,88,206,65,61,13,186,368,516,242,73,171,13,186,59,186,59,186,84,226,517,342,168,12,199,368,73,112,11,156,168,12,186,59,186,59,94,84,341,200,76,258,433,426,284,274,417,274,415,358,501,233,64,59,186,13,168,13,168,60,233,493,349,116,257,284,108,98,274,98,274,183,358,63,121,5,186,59,186,12,186,12,121,59,349,175,187,84,56,161,56,159,258,116,202,60,236,93,84,169,159,56,159,56,433,257,377,202,93,86,186,12,186,10,426,284,370,228,68,112,10,168,10,168,210,284,108,228,53,242,68,48,224,20,158,9,177,246,73,130,48,196,20,177,9,388,246,98,215,416,210,257,433,104,116,257,30,188,166,314,314,484,85,121,48,130,293,117,294,252,85,224,48,434,293,20,196,228,52,229,158,20,368,228,246,70,387,246,178,84,99,274,216,33,209,192,168,12,57,224,84,178,274,416,209,351,12,186,130,53,257,433,57,192,368,351,56,171,122,65,116,258,56,193,152,56,65,211,94,112,20,174,114,65,349,174,112,262,496,65,207,491,349,95,248,39,139,424,249,254,214,39,248,106,358,499,286,461,207,65,182,358,10,144,285,117,65,114,333,59,186,274,98,218,43,252,77,186,59,417,274,361,218,77,102,274,98,218,43,252,77,415,274,359,218,75,102,452,275,62,233,294,470,256,433,303,480,480,303,275,134,121,58,148,294,116,256,162,303,303,162,74,103,153,294,215,74,294,470,489,312,312,172,206,60,65,112,293,434,116,293,126,302,200,340,358,183,368,199,368,199,122,293,302,443,340,517,501,358,516,368,516,368,293,434,154,330,47,130,66,112,47,130,274,106,151,321,47,126,330,471,224,47,242,66,224,47,423,274,321,466,224,47,215,74,69,210,116,256,284,107,74,103,210,386,256,433,424,284,238,414,200,377,210,386,247,424,424,247,92,238,60,200,69,210,106,247,247,106,60,206,416,270,284,424,498,334,471,330,189,31,112,65,274,98,107,284,329,181,312,330,154,38,135,10,182,182,12,214,38,168,10,13,168,66,242,116,256,221,107,66,256,428,56,233,233,63,242,73,242,73,121,56,64,121,73,112,73,112,382,210,438,266,210,64,266,125,21,180,59,121,231,228,59,120,268,60,207,267,442,114,65,47,224,79,256,90,224,47,130,47,256,396,47,130,107,284,107,284,265,88,112,68,12,154,107,279,284,424,284,424,406,265,68,242,172,13,284,424,107,284,154,330,284,424,330,471,2,177,218,44,100,259,2,172,177,2,361,218,418,177,2,200,26,224,47,87,256,343,200,47,130,256,401,215,74,74,103,5,171,11,171,11,84,94,156,156,224,84,218,42,228,51,47,224,258,28,172,359,218,368,228,126,47,258,418,177,25,181,322,177,2,322,498,23,177,331,508,190,331,266,125,134,442,266,31,241,400,83,284,144,12,461,284,151,137,424,266,266,116,266,125,130,48,433,266,50,214,121,60,218,361,62,233,44,214,13,168,13,168,60,233,493,349,186,12,186,12,121,59,349,175,59,186,84,226,517,342,186,59,94,84,341,200,76,84,226,517,342,94,84,341,200,76,453,302,12,302,135,427,396,219,461,284,219,78,284,144,287,128,287,270,419,114,49,101,274,146,100,259,31,250,90,114,49,161,12,152,137,259,39,31,133,249,49,286,170,12,296,242,66,66,112,452,275,275,134,377,200,200,60,65,112,206,65,461,284,284,144,293,434,116,293,284,144,461,284];
softctrw= [1,2,1,2,1,4,3,3,4,4,2,3,4,4,2,1,2,4,4,3,3,2,4,3,4,2,3,2,1,2,1,4,3,3,4,4,2,3,4,4,2,4,4,3,3,2,4,3,4,2,3,2,3,4,2,2,2,2,3,2,2,2,2,1,3,4,2,2,4,4,3,4,1,3,3,4,4,4,4,2,4,4,4,4,4,3,2,3,4,3,4,2,4,1,2,4,4,3,4,3,3,4,2,4,4,2,4,2,1,3,3,3,4,3,4,1,4,1,2,3,2,1,2,4,2,4,3,3,2,4,3,4,4,2,4,2,3,3,2,4,2,4,4,1,2,1,4,4,3,4,3,3,4,2,4,4,2,4,2,1,3,3,3,4,3,4,1,4,1,2,3,2,4,2,4,3,3,2,4,3,4,4,2,4,2,3,3,2,4,2,4,4,1,2,1,3,3,4,3,4,4,3,3,4,3,4,3,4,3,4,2,2,2,4,1,4,2,1,3,1,4,1,4,1,3,1,4,3,4,1,1,3,1,4,1,4,1,3,1,4,4,4,1,3,4,1,4,4,3,2,4,3,2,4,1,3,4,1,4,2,3,1,4,1,4,1,3,1,1,4,3,2,4,2,4,2,2,4,3,4,2,4,2,4,2,3,2,4,2,3,1,4,4,4,4,2,3,3,4,1,4,3,2,3,4,3,4,4,4,2,4,2,3,4,4,2,4,2,4,2,1,2,3,4,2,4,2,2,2,2,3,1,4,4,3,2,3,2,2,2,4,2,4,2,2,1,4,2,3,4,2,3,2,2,4,3,2,3,3,4,3,2,3,3,4,3,4,3,4,2,4,2,2,3,2,3,1,4,4,3,2,3,2,2,2,4,2,4,2,4,2,3,4,2,4,2,2,4,3,2,3,3,4,3,2,4,3,4,3,4,1,2,4,4,3,3,2,4,4,4,4,1,2,1,2,2,4,4,2,2,1,4,4,3,4,4,2,3,4,4,4,2,1,2,1,3,3,4,4,3,3,2,4,2,4,3,2,3,2,1,2,1,2,2,3,3,2,2,2,3,4,3,3,4,2,2,2,2,1,2,1,3,2,4,4,3,2,3,2,4,3,2,3,1,3,2,4,3,1,2,3,2,3,2,2,4,3,3,4,4,4,2,4,3,4,3,2,3,2,3,4,2,1,2,2,2,2,3,4,3,3,1,2,4,4,4,1,2,4,3,2,4,2,2,1,2,4,2,4,3,4,4,3,2,4,2,2,2,1,2,4,3,2,4,3,3,2,3,2,2,4,2,2,4,4,4,2,4,4,4,2,2,2,3,3,2,3,4,2,2,3,2,4,4,4,2,4,3,4,4,4,2,4,3,4,4,3,1,3,2,3,4,2,2,2,1,4,2,4,4,4,3,2,3,3,4,4,1,2,2,3,2,2,1,2,2,3,2,2,4,2,2,2,2,4,2,1,3,4,4,2,2,2,3,4,4,3,2,2,4,2,4,2,4,4,4,2,4,3,4,4,4,3,1,3,4,2,2,4,3,2,3,1,3,4,2,4,3,4,4,2,3,3,2,4,3,2,4,3,3,1,3,4,2,4,1,3,3,2,2,2,4,2,2,1,2,3,4,4,3,2,4,2,1,2,3,3,4,4,2,3,4,4,3,2,4,1,3,1,4,1,2,4,1,4,4,1,4,1,3,1,2,2,1,1,4,3,3,3,1,4,1,2,1,1,2,4,1,2,2,1,4,1,4,2,1,1,3,1,2,4,1,4,1,1,4,1,4,4,1,3,2,4,3,4,3,4,4,4,1,1,3,2,3,2,4,2,4,4,1,1,2,1,3,1,3,1,3,3,1,3,2,1,2,2,1,4,1,4,1,4,1,1,3,2,3,4,1,1,4,2,1,4,1,4,1,4,1,1,4,1,3,1,4,1,2,1,4,1,4,1,3,3,1,4,1,2,1,2,1,3,1,1,3,2,1,4,2,4,1,2,3,1,2,2,3,1,4,3,1,1,4,4,3,2,2,1,1,2,1,4,4,2,3,1,2,1,3,2,1,4,4,1,4,4,1,1,4,1,4,4,2,4,3,4,3,3,1,3,3,3,3,3,3,3,1,2,1,1,3,1,4,2,2,4,3,2,2,4,2,3,2,2,2,3,2,4,1,4,1,3,2,4,1,3,1,3,1,1,3,1,4,1,4,3,1,3,4,2,3,1,2,4,1,4,1,1,3,4,4,3,3,4,1,1,4,1,2,4,1,2,1,1,2,4,4,3,3,1,3,2,1,3,4,3,2,1,4,4,4,1,2,3,3,4,1,3,3,4,1,4,4,1,4,2,4,2,4,2,1,2,2,1,2,4,1,2,1,1,4,2,3,3,1,4,1,2,2,1,2,3,2,3,3,1,2,1,1,2,4,2,1,3,3,1,1,4,4,3,1,3,3,3,4,1,2,2,4,1,3,4,3,4,1,4,4,4,3,2,3,4,4,3,3,2,4,3,4,4,4,3,3,2,3,2,2,4,3,3,2,2,2,2,3,4,3,3,1,2,2,3,3,2,2,1,3,2,4,4,3,2,3,3,2,3,2,4,4,3,1,4,2,4,1,3,2,1,4,1,1,2,1,2,4,4,4,2,4,2,3,4,3,4,3,3,3,3,2,2,3,4,2,4,4,3,2,3,3,2,3,3,4,2,4,4,1,1,3,4,1,1,4,4,1,1,2,4,1,1,4,4,1,1,2,4,1,1,4,1,2,4,1];
